50	
2991	
2971	
1512	1503
575	630
336	334
805	882
460	504
168	167
690	756
345	378
672	668
1150	1260
168	167
345	378
345	378
575	630
504	501
1512	1503
805	882
805	882
690	756
805	882
1176	1169
115	126
1150	1260
1008	1002
672	668
460	504
345	378
1176	1169
1008	1002
168	167
1344	1336
575	630
1150	1260
336	334
1344	1336
345	378
1008	1002
1035	1134
1344	1336
920	1008
168	167
1512	1503
672	668
460	504
460	504
504	501
460	504
460	504
672	668
920	1008